Read MPS format model from file dat/rmp/4node-base_4096_20.mps
Reading time = 0.25 seconds
: 4156 rows, 20628 columns, 743366 nonzeros
Gurobi Optimizer version 9.0.0 build v9.0.0rc2 (linux64)
Optimize a model with 4156 rows, 20628 columns and 743366 nonzeros
Model fingerprint: 0xdb6ff87c
Coefficient statistics:
  Matrix range     [1e-03, 2e+01]
  Objective range  [2e-02, 1e+04]
  Bounds range     [0e+00, 0e+00]
  RHS range        [1e+00, 8e+01]
Ordering time: 0.01s

Barrier statistics:
 AA' NZ     : 2.093e+05
 Factor NZ  : 2.592e+05 (roughly 12 MBytes of memory)
 Factor Ops : 1.670e+07 (less than 1 second per iteration)
 Threads    : 1

                  Objective                Residual
Iter       Primal          Dual         Primal    Dual     Compl     Time
   0   1.98631315e+07  0.00000000e+00  4.72e+02 2.40e+02  4.46e+04     0s
   1   5.59245397e+05 -2.29054003e+07  1.25e+01 9.39e+02  2.40e+03     0s
   2   6.68211217e+03 -8.28313615e+06  1.50e-02 1.30e+01  4.05e+02     0s
   3   1.09625815e+03 -1.31765984e+06  1.02e-03 1.72e+00  6.44e+01     0s
   4  -3.93378012e+01 -1.61172036e+05  2.71e-06 1.54e-01  7.85e+00     0s
   5  -2.52748664e+02 -5.56155559e+03  3.28e-07 3.84e-03  2.58e-01     0s
   6  -3.18916453e+02 -7.24863499e+02  1.31e-09 1.72e-04  1.97e-02     0s
   7  -3.38498559e+02 -5.57563294e+02  8.08e-09 6.87e-05  1.06e-02     0s
   8  -3.55668714e+02 -4.54649707e+02  1.76e-08 1.15e-05  4.80e-03     1s
   9  -3.90963796e+02 -4.34198419e+02  6.71e-08 4.52e-06  2.10e-03     1s
  10  -3.99426520e+02 -4.25697900e+02  1.50e-07 4.42e-07  1.27e-03     1s
  11  -4.03462332e+02 -4.21903977e+02  2.11e-07 1.82e-07  8.95e-04     1s
  12  -4.07647131e+02 -4.18436826e+02  6.19e-07 5.83e-08  5.23e-04     1s
  13  -4.09845451e+02 -4.16140222e+02  4.05e-07 2.55e-08  3.05e-04     1s
  14  -4.11286948e+02 -4.15167112e+02  7.50e-07 1.25e-08  1.88e-04     1s
  15  -4.12494448e+02 -4.14699101e+02  5.01e-07 6.95e-09  1.07e-04     1s
  16  -4.12983457e+02 -4.14447963e+02  3.78e-07 4.23e-09  7.10e-05     1s
  17  -4.13108533e+02 -4.14302759e+02  4.01e-07 2.78e-09  5.79e-05     1s
  18  -4.13245934e+02 -4.14217325e+02  3.41e-07 1.71e-09  4.71e-05     1s
  19  -4.13589080e+02 -4.14170572e+02  1.74e-07 1.18e-09  2.82e-05     1s
  20  -4.13718244e+02 -4.14105096e+02  1.36e-07 4.29e-10  1.88e-05     1s
  21  -4.13876673e+02 -4.14089153e+02  7.26e-08 2.12e-10  1.03e-05     1s
  22  -4.13944845e+02 -4.14079076e+02  2.01e-07 1.47e-10  6.51e-06     1s
  23  -4.13944926e+02 -4.14076914e+02  2.15e-06 1.26e-10  6.40e-06     1s
  24  -4.13969758e+02 -4.14069161e+02  1.47e-06 3.79e-11  4.82e-06     1s
  25  -4.13969796e+02 -4.14069154e+02  3.88e-06 3.75e-11  4.82e-06     1s
  26  -4.13970126e+02 -4.14068434e+02  2.10e-06 3.05e-11  4.77e-06     2s
  27  -4.13970193e+02 -4.14068125e+02  1.56e-06 2.45e-11  4.75e-06     2s
  28  -4.13970977e+02 -4.14067202e+02  1.86e-06 1.71e-11  4.67e-06     2s
  29  -4.13971080e+02 -4.14066173e+02  2.19e-06 1.46e-11  4.61e-06     2s
  30  -4.13971392e+02 -4.14066087e+02  2.53e-06 1.46e-11  4.59e-06     2s
  31  -4.13971462e+02 -4.14065993e+02  2.66e-06 1.46e-11  4.58e-06     2s
  32  -4.13971869e+02 -4.14065754e+02  3.14e-06 1.46e-11  4.55e-06     2s
  33  -4.13972601e+02 -4.14065388e+02  5.70e-06 4.18e-11  4.50e-06     2s
  34  -4.13972757e+02 -4.14065075e+02  6.09e-06 1.11e-10  4.47e-06     2s
  35  -4.13973809e+02 -4.14064993e+02  6.65e-06 8.73e-11  4.42e-06     2s
  36  -4.13973902e+02 -4.14064997e+02  1.10e-05 8.71e-11  4.42e-06     2s
  37  -4.13974252e+02 -4.14065003e+02  1.62e-05 8.08e-11  4.40e-06     2s
  38  -4.13975471e+02 -4.14065079e+02  3.56e-05 6.35e-11  4.36e-06     2s
  39  -4.13975771e+02 -4.14065079e+02  5.24e-05 6.35e-11  4.36e-06     2s
  40  -4.13976546e+02 -4.14065076e+02  4.77e-05 6.49e-11  4.31e-06     2s
  41  -4.13978539e+02 -4.14065067e+02  4.84e-05 7.78e-11  4.21e-06     2s
  42  -4.13983410e+02 -4.14065000e+02  8.04e-05 6.44e-11  3.98e-06     2s
  43  -4.13984167e+02 -4.14065001e+02  1.13e-04 6.43e-11  3.97e-06     2s
  44  -4.14002691e+02 -4.14065918e+02  2.45e-04 4.45e-10  3.09e-06     3s
  45  -4.14016883e+02 -4.14065607e+02  4.94e-04 2.78e-10  2.41e-06     3s
  46  -4.14049456e+02 -4.14065216e+02  4.58e-04 1.45e-10  9.73e-07     3s
  47  -4.14056038e+02 -4.14064916e+02  2.82e-04 2.27e-11  5.37e-07     3s
  48  -4.14056021e+02 -4.14064915e+02  2.58e-04 2.27e-11  5.37e-07     3s
  49  -4.14057870e+02 -4.14064901e+02  2.94e-04 2.03e-11  3.47e-07     3s
  50  -4.14059006e+02 -4.14064875e+02  2.01e-04 1.68e-11  2.80e-07     3s
  51  -4.14063579e+02 -4.14064816e+02  3.66e-04 2.91e-11  3.49e-08     3s
  52  -4.14063478e+02 -4.14064799e+02  2.53e-04 1.46e-11  2.16e-08     3s
  53  -4.14064185e+02 -4.14064780e+02  2.68e-04 1.46e-11  1.04e-08     3s
  54  -4.14064174e+02 -4.14064772e+02  2.64e-04 7.28e-12  1.01e-08     3s
  55  -4.14064003e+02 -4.14064772e+02  2.34e-04 1.46e-11  9.92e-09     3s
  56  -4.14065331e+02 -4.14064753e+02  2.14e-04 1.46e-11  8.93e-09     3s
  57  -4.14064836e+02 -4.14064759e+02  1.85e-04 7.28e-12  7.79e-09     3s
  58  -4.14063374e+02 -4.14064736e+02  7.03e-04 1.46e-11  5.98e-09     3s
  59  -4.14064031e+02 -4.14064701e+02  3.42e-04 1.46e-11  2.51e-09     3s
  60  -4.14064717e+02 -4.14064685e+02  4.31e-04 1.46e-11  4.84e-10     3s
  61  -4.14064642e+02 -4.14064711e+02  3.11e-04 1.46e-11  7.10e-10     4s
  62  -4.14064927e+02 -4.14064711e+02  6.66e-04 1.46e-11  8.52e-10     4s
  63  -4.14064897e+02 -4.14064708e+02  5.82e-04 1.46e-11  6.24e-10     4s
  64  -4.14064719e+02 -4.14064690e+02  2.75e-04 1.46e-11  3.01e-10     4s
  65  -4.14059736e+02 -4.14064690e+02  2.92e-04 1.46e-11  2.92e-10     4s
  66  -4.14060811e+02 -4.14064679e+02  3.17e-04 2.91e-11  1.30e-10     4s
  67  -4.14060777e+02 -4.14064680e+02  2.30e-04 2.91e-11  1.68e-10     4s
  68  -4.14062462e+02 -4.14064681e+02  1.42e-04 1.46e-11  1.42e-10     4s
  69  -4.14065992e+02 -4.14064682e+02  1.43e-04 1.46e-11  2.72e-10     4s
  70  -4.14064019e+02 -4.14064675e+02  6.64e-05 1.46e-11  2.60e-10     4s
  71  -4.14064602e+02 -4.14064672e+02  1.17e-05 7.28e-11  1.75e-11     4s
  72  -4.14064602e+02 -4.14064672e+02  2.38e-05 2.91e-11  8.66e-12     4s
  73  -4.14064559e+02 -4.14064672e+02  1.72e-05 1.46e-11  8.63e-15     4s
  74  -4.14064564e+02 -4.14064672e+02  1.72e-05 2.91e-11  8.61e-18     4s
  75  -4.14064563e+02 -4.14064672e+02  1.71e-05 1.46e-11  7.18e-23     4s
  76  -4.14064563e+02 -4.14064672e+02  1.71e-05 2.91e-11  2.30e-27     4s

Barrier performed 76 iterations in 4.40 seconds
Sub-optimal termination - objective -4.13876673e+02

Solve time: 4.398484996
Barrier iterations: 76
